232
245
323
183
166
287
224
325
171
134
129
359
286
268
197
289
409
253
255
163
152
208
165
179
301
243
246
134
166
292
138
305
174
214
211
189
341
200
348
193
230
166
297
223
195
130
270
184
199
214
219
233
237
111
194
312
280
253
234
168
226
240
243
215
213
181
172
153
127
315
205
233
246
203
92
287
229
219
283
291
178
201
194
174
272
254
227
95
211
247
309
220
212
172
208
124
136
268
164
144
